Traveling Salesman Problem/TSP_generados/Aleatorio1621103353_11.tsp
NAME: Aleatorio1621103353_11.tsp
COMMENT: Randomly generated scenario
TYPE: TSP
DIMENSION: 11
EDGE_WEIGHT_TYPE: ATT
NODE_COORD_SECTION
1 21.25 27.26
2 42.33 42.99
3 39.05 6.45
4 24.15 3.54
5 42.46 22.85
6 49.69 49.47
7 39.68 44.37
8 12.72 5.1
9 26.23 12.36
10 6.57 47.01
11 31.91 35.15
