Traveling Salesman Problem/TSP_generados/Aleatorio1621103353_11.opt.tour
NAME: Aleatorio1621103353_11.opt.tour
COMMENT: Optimal solution for Aleatorio1621103353_11 (179.53761447784768)
TYPE: TOUR
DIMENSION: 11
TOUR_SECTION
1 9 8 4 3 5 6 2 7 11 10
-1
EOF
